1420.6
0 70 60 20 13 38 10 12 16 63 28 48 0
0 43 41 18 25 32 58 7 67 75 0
0 9 55 3 42 64 22 21 4 8 0
0 49 56 33 61 36 5 57 46 11 39 17 0
0 23 1 62 29 45 27 52 35 31 72 40 51 26 0
0 69 71 19 59 66 65 53 24 6 30 34 0
0 44 50 14 54 15 37 47 74 73 2 68 0
